100 10
585 835
697 384
573 397
627 395
265 449
318 954
370 172
768 251
100 543
110 808
130 373
148 737
264 810
411 362
261 340
205 711
418 536
169 772
776 849
722 491
317 783
337 689
874 456
399 261
567 338
543 549
450 572
729 520
379 575
438 453
153 345
616 794
535 779
845 353
342 817
417 670
397 932
471 412
406 232
334 535
570 663
314 417
312 773
792 509
183 674
345 834
533 579
467 749
786 180
558 932
464 531
340 433
560 174
356 527
533 589
792 354
200 348
459 412
617 762
421 422
498 171
632 563
600 275
442 604
458 241
435 677
478 796
157 608
449 206
769 543
247 730
255 774
259 396
417 602
696 485
542 883
855 569
530 966
288 509
475 518
658 463
554 343
570 439
539 736
276 785
222 836
409 738
921 353
529 232
417 321
334 344
395 415
788 572
714 611
99 430
781 799
96 563
411 418
471 829
331 380
